p cnf 134 447
-1 -77 0
-3 -78 0
-1 -79 0
-3 -79 0
-3 -77 0
-3 -80 0
-1 -81 0
-3 -81 0
-3 -83 0
-1 -84 0
-3 -84 0
-3 -86 0
-1 -87 0
-3 -87 0
-3 -88 0
-1 -89 0
-3 -89 0
-3 -90 0
-1 -92 0
-3 -92 0
-3 -93 0
-1 -94 0
-3 -94 0
-3 -95 0
-1 -97 0
-3 -97 0
-3 -99 0
-1 -100 0
-3 -100 0
-3 -101 0
-1 -102 0
-3 -102 0
-3 -103 0
-1 -104 0
-3 -104 0
-3 -105 0
-1 -107 0
-3 -107 0
-3 -108 0
-1 -109 0
-3 -109 0
-3 -110 0
-1 -111 0
-3 -111 0
-3 -112 0
-1 -113 0
-3 -113 0
-3 -114 0
-1 -115 0
-3 -115 0
-3 -116 0
-1 -117 0
-3 -117 0
-3 -118 0
-1 -119 0
-3 -119 0
-3 -120 0
-1 -121 0
-3 -121 0
-3 -122 0
-1 -123 0
-3 -123 0
-3 -124 0
-1 -126 0
-3 -126 0
-3 -127 0
-1 -128 0
-3 -128 0
-3 -129 0
-1 -130 0
-3 -130 0
-3 -131 0
-1 -132 0
-3 -132 0
-3 -133 0
-1 -135 0
-3 -135 0
-3 -136 0
-1 -139 0
-3 -139 0
-3 -140 0
-1 -141 0
-3 -141 0
-3 -142 0
-1 -143 0
-3 -143 0
-3 -144 0
-1 -146 0
-3 -146 0
-3 -149 0
-1 -150 0
-3 -150 0
-3 -151 0
-1 -85 0
-3 -85 0
-3 -91 0
-1 -98 0
-3 -98 0
-3 -125 0
-1 -96 0
-3 -96 0
-2 -128 0
-4 -77 0
-5 -77 0
-6 -77 0
-8 -77 0
-9 -77 0
-11 -77 0
-12 -77 0
-13 -77 0
-14 -77 0
-15 -77 0
-16 -77 0
-17 -77 0
-18 -77 0
-19 -77 0
-20 -77 0
-21 -77 0
-22 -77 0
-23 -77 0
-24 -77 0
-25 -77 0
-26 -77 0
-27 -77 0
-28 -77 0
-29 -77 0
-30 -77 0
-32 -77 0
-33 -77 0
-34 -77 0
-35 -77 0
-36 -77 0
-37 -77 0
-38 -77 0
-39 -77 0
-40 -77 0
-41 -77 0
-42 -77 0
-43 -77 0
-44 -77 0
-45 -77 0
-46 -77 0
-47 -77 0
-48 -77 0
-49 -77 0
-50 -77 0
-51 -77 0
-52 -77 0
-53 -77 0
-54 -77 0
-55 -77 0
-56 -77 0
-57 -77 0
-58 -77 0
-60 -77 0
-61 -77 0
-64 -77 0
-65 -77 0
-66 -77 0
-67 -77 0
-68 -77 0
-69 -77 0
-71 -77 0
-74 -77 0
-75 -77 0
-76 -77 0
-2 -77 0
-64 -78 0
-2 -79 0
-2 -80 0
-2 -81 0
-2 -83 0
-2 -84 0
-2 -86 0
-2 -87 0
-2 -88 0
-2 -89 0
-2 -90 0
-2 -92 0
-2 -93 0
-2 -94 0
-2 -95 0
-2 -97 0
-2 -99 0
-2 -100 0
-2 -101 0
-2 -102 0
-2 -103 0
-2 -104 0
-2 -105 0
-2 -107 0
-2 -108 0
-2 -109 0
-2 -110 0
-2 -111 0
-2 -112 0
-2 -113 0
-2 -114 0
-2 -115 0
-2 -116 0
-2 -117 0
-2 -118 0
-2 -119 0
-2 -120 0
-2 -121 0
-2 -122 0
-2 -123 0
-2 -124 0
-2 -126 0
-2 -127 0
-2 -129 0
-2 -130 0
-2 -131 0
-2 -132 0
-2 -133 0
-2 -135 0
-2 -136 0
-2 -139 0
-2 -140 0
-2 -141 0
-2 -142 0
-2 -143 0
-2 -144 0
-2 -146 0
-2 -149 0
-2 -150 0
-2 -151 0
-2 -91 0
-2 -98 0
-2 -125 0
-2 -96 0
-2 -85 0
-2 -78 0
-1 -105 0
-4 -78 0
-5 -78 0
-6 -78 0
-8 -78 0
-9 -78 0
-11 -78 0
-12 -78 0
-13 -78 0
-14 -78 0
-15 -78 0
-16 -78 0
-17 -78 0
-18 -78 0
-19 -78 0
-20 -78 0
-21 -78 0
-22 -78 0
-23 -78 0
-24 -78 0
-25 -78 0
-26 -78 0
-27 -78 0
-28 -78 0
-29 -78 0
-30 -78 0
-32 -78 0
-33 -78 0
-34 -78 0
-35 -78 0
-36 -78 0
-37 -78 0
-38 -78 0
-39 -78 0
-40 -78 0
-41 -78 0
-42 -78 0
-43 -78 0
-44 -78 0
-45 -78 0
-46 -78 0
-47 -78 0
-48 -78 0
-49 -78 0
-50 -78 0
-51 -78 0
-52 -78 0
-53 -78 0
-54 -78 0
-55 -78 0
-56 -78 0
-57 -78 0
-58 -78 0
-60 -78 0
-61 -78 0
-65 -78 0
-66 -78 0
-67 -78 0
-68 -78 0
-69 -78 0
-71 -78 0
-74 -78 0
-75 -78 0
-76 -78 0
-15 -79 0
-4 -80 0
-4 -81 0
-4 -83 0
-4 -84 0
-4 -86 0
-4 -87 0
-4 -88 0
-4 -89 0
-4 -90 0
-4 -92 0
-4 -93 0
-4 -94 0
-4 -95 0
-4 -97 0
-4 -99 0
-4 -100 0
-4 -101 0
-4 -102 0
-4 -103 0
-4 -104 0
-4 -105 0
-4 -107 0
-4 -108 0
-4 -109 0
-4 -110 0
-4 -111 0
-4 -112 0
-4 -113 0
-4 -114 0
-4 -115 0
-4 -116 0
-4 -117 0
-4 -118 0
-4 -119 0
-4 -120 0
-4 -121 0
-4 -122 0
-4 -123 0
-4 -124 0
-4 -126 0
-4 -127 0
-4 -128 0
-4 -129 0
-4 -130 0
-4 -131 0
-4 -132 0
-4 -133 0
-4 -135 0
-4 -136 0
-4 -139 0
-4 -140 0
-4 -141 0
-4 -142 0
-4 -143 0
-4 -144 0
-4 -146 0
-4 -149 0
-4 -150 0
-4 -151 0
-4 -85 0
-4 -91 0
-4 -98 0
-4 -125 0
-4 -96 0
-4 -79 0
-5 -129 0
-1 -80 0
-6 -80 0
-8 -80 0
-9 -80 0
-11 -80 0
-12 -80 0
-13 -80 0
-14 -80 0
-15 -80 0
-16 -80 0
-17 -79 0
-18 -79 0
-19 -79 0
-20 -79 0
-21 -79 0
-22 -79 0
-23 -79 0
-24 -79 0
-25 -79 0
-26 -79 0
-27 -79 0
-28 -79 0
-29 -79 0
-30 -79 0
-32 -79 0
-33 -79 0
-34 -79 0
-35 -79 0
-36 -79 0
-37 -79 0
-38 -79 0
-39 -79 0
-40 -79 0
-41 -79 0
-42 -79 0
-43 -79 0
-44 -79 0
-45 -79 0
-46 -79 0
-47 -79 0
-48 -79 0
-49 -79 0
-50 -79 0
-51 -79 0
-52 -79 0
-53 -79 0
-54 -79 0
-55 -79 0
-56 -79 0
-57 -79 0
-58 -79 0
-60 -79 0
-61 -79 0
-64 -79 0
-65 -79 0
-66 -79 0
-67 -79 0
-68 -79 0
-69 -79 0
-71 -79 0
-74 -79 0
-75 -79 0
-76 -79 0
-38 -80 0
-17 -81 0
-6 -83 0
-6 -84 0
-6 -86 0
-6 -87 0
-6 -88 0
-6 -89 0
-6 -90 0
-6 -92 0
-6 -93 0
-6 -94 0
-6 -95 0
-6 -97 0
-6 -99 0
-6 -100 0
-6 -101 0
-6 -102 0
-6 -103 0
-6 -104 0
